data/mip_solutions/furman_sahinidis/reduced_transportation/9sp-has1_cplex.sol
Elapsed time: 0.0365099906921
Nodes explored: 0
Upper bound: 13.0
Lower bound: 13.0
y[0,2]=1
y[0,3]=1
y[1,0]=1
y[1,2]=1
y[1,4]=1
y[2,1]=1
y[2,3]=1
y[3,1]=1
y[3,3]=1
y[4,0]=1
y[4,2]=1
y[5,1]=1
y[5,2]=1
q[0,3,2,3]=450.0
q[0,3,3,3]=1300.0
q[0,4,2,4]=250.0
q[0,5,3,5]=250.0
q[0,6,3,6]=250.0
q[0,7,2,7]=250.0
q[1,5,0,5]=750.0
q[1,5,2,5]=500.0
q[1,5,2,7]=250.0
q[1,6,2,6]=500.0
q[1,6,2,7]=1000.0
q[1,7,2,7]=1500.0
q[1,7,4,8]=4500.0
q[2,2,1,2]=1700.0
q[2,2,1,3]=1900.0
q[2,2,3,2]=750.0
q[2,3,1,3]=2200.0
q[2,3,3,3]=450.0
q[2,3,3,4]=250.0
q[3,1,1,1]=550.0
q[3,1,1,2]=400.0
q[3,1,2,1]=1.4370016288e-10
q[3,1,3,1]=750.0
q[3,2,1,3]=300.0
q[3,3,1,3]=500.0
q[4,2,0,3]=1650.0
q[4,2,0,4]=750.0
q[4,2,2,2]=1500.0
q[4,3,0,3]=600.0
q[4,3,2,3]=3050.0
q[4,3,2,4]=250.0
q[5,0,1,1]=9950.0
q[5,0,2,1]=8500.0
