data/mip_solutions/furman_sahinidis/reduced_transportation/9sp-has1_cplex.log

Log started (V12.6.3.0) Thu Jan 25 18:37:30 2018

New value for default parallel thread count: 1

Problem '/tmp/tmpCk32Eo.pyomo.lp' read.
Read time = 0.00 sec. (0.10 ticks)

Problem name         : /tmp/tmpCk32Eo.pyomo.lp
Objective sense      : Minimize
Variables            :    1382  [Nneg: 1351,  Binary: 30,  General Integer: 1]
Objective nonzeros   :       1
Linear constraints   :     131  [Less: 30,  Equal: 101]
  Nonzeros           :    4107
  RHS nonzeros       :      37

Variables            : Min LB: 0.000000         Max UB: 1.000000       
Objective nonzeros   : Min   : 1.000000         Max   : 1.000000       
Linear constraints   :
  Nonzeros           : Min   : 1.000000         Max   : 10900.00       
  RHS nonzeros       : Min   : 1.000000         Max   : 18450.00       
Tried aggregator 4 times.
MIP Presolve eliminated 70 rows and 1200 columns.
MIP Presolve added 1 rows and 1 columns.
Aggregator did 9 substitutions.
Reduced MIP has 53 rows, 174 columns, and 507 nonzeros.
Reduced MIP has 21 binaries, 1 generals, 0 SOSs, and 0 indicators.
Presolve time = 0.00 sec. (1.67 ticks)
Found incumbent of value 25.000000 after 0.00 sec. (2.25 ticks)
Probing fixed 1 vars, tightened 2 bounds.
Probing time = 0.00 sec. (0.05 ticks)
Tried aggregator 2 times.
MIP Presolve eliminated 1 rows and 1 columns.
Aggregator did 1 substitutions.
Reduced MIP has 51 rows, 172 columns, and 502 nonzeros.
Reduced MIP has 20 binaries, 1 generals, 0 SOSs, and 0 indicators.
Presolve time = 0.00 sec. (0.26 ticks)
Probing time = 0.00 sec. (0.03 ticks)
Clique table members: 4.
MIP emphasis: balance optimality and feasibility.
MIP search method: dynamic search.
Parallel mode: none, using 1 thread.
Root relaxation solution time = 0.00 sec. (0.51 ticks)

        Nodes                                         Cuts/
   Node  Left     Objective  IInf  Best Integer    Best Bound    ItCnt     Gap

*     0+    0                           25.0000        6.0000            76.00%
      0     0       10.1818    11       25.0000       10.1818       85   59.27%
*     0+    0                           16.0000       10.1818            36.36%
      0     0       11.0028    10       16.0000       Cuts: 8      114   31.23%
*     0+    0                           13.0000       11.0028            15.36%
      0     0       12.0000     8       13.0000      Cuts: 51      193    7.69%
      0     0        cutoff             13.0000                    326    0.00%
Elapsed time = 0.01 sec. (9.24 ticks, tree = 0.01 MB, solutions = 3)

GUB cover cuts applied:  1
Clique cuts applied:  2
Cover cuts applied:  4
Implied bound cuts applied:  8
Flow cuts applied:  4
Mixed integer rounding cuts applied:  5
Gomory fractional cuts applied:  1

Root node processing (before b&c):
  Real time             =    0.01 sec. (9.29 ticks)
Sequential b&c:
  Real time             =    0.00 sec. (0.00 ticks)
                          ------------
Total (root+branch&cut) =    0.01 sec. (9.29 ticks)

Solution pool: 3 solutions saved.

MIP - Integer optimal solution:  Objective =  1.3000000000e+01
Solution time =    0.01 sec.  Iterations = 326  Nodes = 0
Deterministic time = 9.30 ticks  (886.19 ticks/sec)


Incumbent solution written to file '/tmp/tmpm5oGAX.cplex.sol'.
